words_easy_train/words_308_SAT.qaiger
aag 35 16 0 1 19
6
20
26
24
4
22
30
32
10
8
18
14
12
16
28
2
71
34 27 23
36 34 31
38 25 19
40 29 21
42 40 38
44 42 36
46 13 7
48 5 3
50 15 11
52 50 9
54 52 48
56 54 46
58 57 44
60 33 17
62 61 58
64 45 16
66 65 61
68 67 59
70 69 63
i0 2 y2[2]
i1 1 x1[1]
i2 1 x1[4]
i3 1 x1[3]
i4 2 y2[1]
i5 1 x1[2]
i6 1 x1[6]
i7 1 x1[7]
i8 2 y2[4]
i9 2 y2[3]
i10 1 x1[0]
i11 2 y2[6]
i12 2 y2[5]
i13 2 y2[7]
i14 1 x1[5]
i15 2 y2[0]
o0 bv[0]
c
simplified
  >
    1
    or
      2 y2
      unary minus
        1 x1
