words_easy_train/words_308_SAT.qaiger.qdimacs
p cnf 35 58
a 9 10 11 12 13 14 15 16 0
e 1 2 3 4 5 6 7 8 17 18 19 20 21 22 23 24 25 26 27 28 29 30 31 32 33 34 35 0
13 11 17 0
-13 -17 0
-11 -17 0
-17 15 18 0
17 -18 0
-15 -18 0
12 9 19 0
-12 -19 0
-9 -19 0
14 10 20 0
-14 -20 0
-10 -20 0
-20 -19 21 0
20 -21 0
19 -21 0
-21 -18 22 0
21 -22 0
18 -22 0
6 3 23 0
-6 -23 0
-3 -23 0
2 1 24 0
-2 -24 0
-1 -24 0
7 5 25 0
-7 -25 0
-5 -25 0
-25 4 26 0
25 -26 0
-4 -26 0
-26 -24 27 0
26 -27 0
24 -27 0
-27 -23 28 0
27 -28 0
23 -28 0
28 -22 29 0
-28 -29 0
22 -29 0
16 8 30 0
-16 -30 0
-8 -30 0
30 -29 31 0
-30 -31 0
29 -31 0
22 -8 32 0
-22 -32 0
8 -32 0
32 30 33 0
-32 -33 0
-30 -33 0
33 29 34 0
-33 -34 0
-29 -34 0
34 31 35 0
-34 -35 0
-31 -35 0
-35 0
